<number of tasks>
20


<number of equipment>
5


<cycle time>
1000


<investment costs>
1,7992
2,11733
3,24691
4,16828
5,10043


<task times>
1,-1,483,430,367,-1
2,-1,399,158,325,-1
3,464,-1,-1,325,440
4,396,-1,-1,268,446
5,-1,428,91,307,-1
6,-1,334,161,300,-1
7,377,-1,-1,302,449
8,-1,381,158,325,-1
9,-1,276,131,249,-1
10,-1,-1,149,-1,285
11,508,-1,-1,237,336
12,-1,438,177,397,-1
13,304,-1,-1,298,345
14,-1,388,300,337,-1
15,-1,368,179,291,-1
16,540,-1,-1,361,475
17,-1,430,239,329,-1
18,-1,-1,179,-1,322
19,356,-1,-1,318,386
20,-1,-1,78,-1,311


<precedence relations>
1,4
1,10
2,4
3,4
3,5
4,8
5,6
5,7
5,20
6,9
6,10
6,13
8,11
8,12
9,16
9,17
10,12
10,15
10,17
11,13
11,14
12,19
13,16
13,17
13,18
14,17
14,20


<task types>
1,3
2,3
3,2
4,2
5,3
6,3
7,2
8,3
9,3
10,1
11,2
12,3
13,2
14,3
15,3
16,2
17,3
18,1
19,2
20,1


<line depot>
1,1
2,3
3,1
4,3
5,2


<processing costs>
1,7200
2,7200
3,14400
4,14400
5,14400


<saving costs>
1,799
2,1173
3,2469
4,1682
5,1004


<end>
